
molecule {
0 1
C   0.0000000   0.0000000   0.0000000
C   0.0000000   0.0000000   1.2878960
C   0.0000000   0.0000000  -1.2878960
H   0.0000000   0.9189640   1.8603780
H   0.0000000  -0.9189640   1.8603780
H   0.9189640   0.0000000  -1.8603780
H  -0.9189640   0.0000000  -1.8603780
symmetry c1
units angstrom
}

set {
  basis sto-3g
  reference rhf
}

h_energy, wfn = energy('scf', return_wfn=True)
print("rhf energy = %f" % h_energy)

# These options are important (some aren't accessible from molden function)
# wfn.write_molden("psi4_h2o.molden", do_virtual=True, use_natural=False)

